(set-logic QF_S)
(declare-fun var0 () String)
(declare-fun var1 () String)
(declare-fun var2 () String)
(declare-fun var3 () Int)
(declare-fun var4 () Int)
(declare-fun var5 () Int)
(declare-fun var6 () Bool)
(declare-fun var7 () Bool)
(declare-fun var8 () Bool)
(assert (> var4 var5))
(assert (str.contains (str.replace var0 var2 var0) (str.substr var0 var3 var5)))
(assert (> (str.len var1) (str.indexof var1 var0 var3)))
(assert (>= (str.len "[q1\\$P*qGT") (str.len var1)))
(check-sat)